peakDumbCharging = 7400; 
Machine = anon_enum(16); 
machineSpeed = [3700,3700,3700,3700,3700,3700,3700,3700,3700,3700,3700,3700,3700,3700,3700,3700]; 
machineLoad = [3700,3700,3700,3700,3700,3700,3700,3700,3700,3700,3700,3700,3700,3700,3700,3700]; 
Car = anon_enum(8); 
demandCar = [3440,15520,10200,3160,4000,720,2800,1800]; 
arrivalCar = [71,64,56,52,51,45,44,36]; 
departureCar = [75,70,61,55,53,46,46,38]; 
